(set-info :smt-lib-version 2.6)
(set-logic QF_UFLRA)
(set-info :source |
MathSat group

|)
(set-info :category "random")
(set-info :status sat)
(declare-fun x0 () Real)
(declare-fun x1 () Real)
(declare-fun x2 () Real)
(declare-fun x3 () Real)
(declare-fun x4 () Real)
(declare-fun x5 () Real)
(declare-fun x6 () Real)
(declare-fun x7 () Real)
(declare-fun x8 () Real)
(declare-fun x9 () Real)
(declare-fun x10 () Real)
(declare-fun x11 () Real)
(declare-fun x12 () Real)
(declare-fun x13 () Real)
(declare-fun x14 () Real)
(declare-fun x15 () Real)
(declare-fun x16 () Real)
(declare-fun x17 () Real)
(declare-fun x18 () Real)
(declare-fun x19 () Real)
(declare-fun x20 () Real)
(declare-fun x21 () Real)
(declare-fun x22 () Real)
(declare-fun x23 () Real)
(declare-fun x24 () Real)
(declare-fun x25 () Real)
(declare-fun x26 () Real)
(declare-fun x27 () Real)
(declare-fun x28 () Real)
(declare-fun x29 () Real)
(declare-fun f0_1 (Real) Real)
(declare-fun f0_2 (Real Real) Real)
(declare-fun f0_3 (Real Real Real) Real)
(declare-fun f0_4 (Real Real Real Real) Real)
(declare-fun P0 () Bool)
(declare-fun P1 () Bool)
(declare-fun P2 () Bool)
(declare-fun P3 () Bool)
(declare-fun P4 () Bool)
(declare-fun P5 () Bool)
(declare-fun P6 () Bool)
(declare-fun P7 () Bool)
(declare-fun P8 () Bool)
(declare-fun P9 () Bool)
(declare-fun P10 () Bool)
(declare-fun P11 () Bool)
(declare-fun P12 () Bool)
(declare-fun P13 () Bool)
(declare-fun P14 () Bool)
(declare-fun P15 () Bool)
(declare-fun P16 () Bool)
(declare-fun P17 () Bool)
(declare-fun P18 () Bool)
(declare-fun P19 () Bool)
(declare-fun P20 () Bool)
(declare-fun P21 () Bool)
(declare-fun P22 () Bool)
(declare-fun P23 () Bool)
(declare-fun P24 () Bool)
(declare-fun P25 () Bool)
(declare-fun P26 () Bool)
(declare-fun P27 () Bool)
(declare-fun P28 () Bool)
(declare-fun P29 () Bool)
(assert (let ((?v_5 (* 3 x19))) (let ((?v_7 (distinct (+ (- (* 10 x28) (* 13 x10)) ?v_5) 13)) (?v_31 (* 27 x3)) (?v_40 (* 33 x24)) (?v_60 (= (- (+ (* 4 x5) (* 12 x26)) (* 28 x9)) 34))) (let ((?v_49 (<= (- (- ?v_40 (* 5 x11)) (* 25 x4)) 10)) (?v_74 (< (- (- (* 14 x0) (* 15 x20)) (* 11 x1)) 39)) (?v_17 (f0_1 x9))) (let ((?v_50 (distinct (f0_2 x18 x5) ?v_17)) (?v_16 (= x14 x20)) (?v_130 (= (f0_1 x2) (f0_2 x1 x14))) (?v_44 (f0_1 x1)) (?v_20 (f0_1 x13))) (let ((?v_19 (distinct ?v_44 ?v_20)) (?v_62 (f0_1 x7))) (let ((?v_36 (distinct ?v_62 ?v_20)) (?v_126 (distinct (f0_2 x29 x27) (f0_1 x14))) (?v_117 (distinct (f0_2 x7 x7) (f0_2 x5 x10))) (?v_10 (= x12 (f0_1 x16))) (?v_105 (= (f0_2 x26 x2) (f0_2 x25 x21))) (?v_95 (= (f0_1 x10) (f0_2 x9 x21))) (?v_23 (= (f0_1 x26) (f0_2 x15 x21))) (?v_51 (= x4 x1)) (?v_108 (= (f0_1 x24) x12)) (?v_13 (f0_1 x28))) (let ((?v_41 (= (f0_2 x15 x27) ?v_13)) (?v_54 (f0_1 x12))) (let ((?v_39 (distinct ?v_54 (f0_1 x20))) (?v_38 (= x20 x2)) (?v_32 (= (f0_2 x19 x21) (f0_1 x22))) (?v_0 (f0_1 x29))) (let ((?v_9 (distinct ?v_13 ?v_0)) (?v_59 (distinct x0 (f0_2 x16 x1))) (?v_14 (= x26 (f0_2 x8 x13))) (?v_45 (f0_1 x11))) (let ((?v_142 (= ?v_44 ?v_45)) (?v_67 (distinct x26 (f0_2 x21 x23))) (?v_69 (= ?v_45 x7)) (?v_48 (= (f0_1 x3) (f0_2 x15 x0))) (?v_91 (= (f0_2 x20 x3) (f0_2 x21 x29))) (?v_113 (distinct ?v_54 x9)) (?v_28 (= (f0_2 x15 x6) ?v_17)) (?v_84 (distinct x2 ?v_0)) (?v_56 (= x5 x4)) (?v_104 (distinct ?v_62 x7)) (?v_1 (not ?v_95)) (?v_144 (not P17)) (?v_99 (not P22))) (let ((?v_11 (not ?v_84)) (?v_147 (not P10)) (?v_4 (not P11)) (?v_70 (not ?v_48)) (?v_12 (not ?v_14)) (?v_97 (not P4)) (?v_100 (not ?v_7)) (?v_76 (not P7)) (?v_37 (not P29)) (?v_15 (not ?v_56)) (?v_82 (not P24)) (?v_21 (not ?v_41)) (?v_80 (not ?v_130)) (?v_77 (not P12)) (?v_26 (not P13)) (?v_121 (not P3)) (?v_22 (not ?v_19)) (?v_138 (not P0)) (?v_136 (not P23)) (?v_150 (not ?v_38)) (?v_102 (not ?v_59)) (?v_27 (not ?v_23)) (?v_25 (not P21)) (?v_47 (not P15)) (?v_122 (not P27)) (?v_55 (not ?v_28)) (?v_101 (not ?v_36)) (?v_42 (not ?v_39)) (?v_86 (not ?v_108)) (?v_135 (not P16)) (?v_133 (not ?v_142)) (?v_109 (not ?v_49)) (?v_61 (not ?v_50)) (?v_63 (not ?v_51)) (?v_148 (not P28)) (?v_153 (not ?v_113)) (?v_78 (not ?v_32)) (?v_154 (not ?v_16)) (?v_131 (not P6)) (?v_88 (not ?v_60)) (?v_83 (not P8)) (?v_118 (not ?v_9)) (?v_137 (not ?v_10)) (?v_75 (not ?v_74)) (?v_81 (not P2)) (?v_155 (not ?v_67)) (?v_134 (not P26)) (?v_106 (not P19)) (?v_90 (not ?v_117)) (?v_92 (not P14)) (?v_129 (not ?v_91)) (?v_115 (not ?v_104)) (?v_152 (not ?v_105)) (?v_146 (not P5)) (?v_128 (not ?v_69)) (?v_127 (not P9)) (?v_139 (not P18)) (?v_149 (not P25)) (?v_151 (not P1)) (?v_159 (or ?v_142 P12)) (?v_157 (not P20)) (?v_18 (= (- (* 37 x24) (* 28 x12)) 34)) (?v_58 (< (+ (* 41 x20) (* 19 x2)) 8))) (let ((?v_53 (not ?v_58)) (?v_30 (not ?v_18)) (?v_85 (< (- (+ (* 36 x7) x15) ?v_31) 3)) (?v_124 (<= (+ (* 39 x11) (* 39 x28) (* 36 x11)) 27))) (let ((?v_43 (not ?v_124)) (?v_72 (<= (+ (* 22 x9) (* 26 x1) (* 37 x5)) 44))) (let ((?v_112 (not ?v_72)) (?v_111 (not ?v_85)) (?v_8 (< (- (+ (* 35 x1) (* 40 x8)) (* 32 x9)) (- 9))) (?v_2 (< (- (+ (* (- 10) x27) ?v_5) (* 21 x1)) (- 31)))) (let ((?v_93 (not ?v_2)) (?v_6 (< (- (* (- 17) x4) (* 6 x2)) 18)) (?v_3 (< (- (- 0 (* 20 x6)) (* 4 x19)) (- 15))) (?v_94 (= (+ (* 3 x11) (* 11 x18)) (- 34)))) (let ((?v_34 (not ?v_94)) (?v_110 (= (+ (- (* (- 22) x0) ?v_31) (* 37 x20)) 36)) (?v_24 (distinct (+ (* (- 42) x28) (* 2 x23)) 11)) (?v_29 (<= (- (- (* (- 10) x10) (* 6 x11)) (* 31 x16)) (- 39)))) (let ((?v_68 (not ?v_29)) (?v_64 (<= (+ (* (- 40) x11) x3) 11))) (let ((?v_156 (not ?v_64)) (?v_103 (<= (- (+ (* (- 6) x18) (* 28 x10)) x12) (- 21)))) (let ((?v_107 (not ?v_103)) (?v_52 (< (- (+ (* (- 23) x8) (* 13 x26)) 0) 27)) (?v_98 (< (- (+ (* (- 27) x2) (* 32 x15)) (* 12 x13)) (- 38)))) (let ((?v_57 (not ?v_98)) (?v_35 (< (- (+ (* 11 x14) (* 11 x28)) (* 35 x7)) (- 8))) (?v_73 (<= (- (- ?v_40 (* 26 x2)) (* 16 x27)) (- 19))) (?v_46 (<= (- (- (* (- 38) x24) (* 19 x17)) (* 27 x1)) (- 14))) (?v_33 (<= (+ (- (* (- 15) x6) (* 5 x8)) (* 14 x22)) 34)) (?v_65 (distinct (- (- (* 20 x22) (* 8 x11)) (* 22 x5)) (- 10)))) (let ((?v_116 (not ?v_65)) (?v_87 (not ?v_35)) (?v_71 (distinct (+ (* (- 31) x25) (* 15 x25) (* 28 x21)) 37))) (let ((?v_123 (not ?v_71)) (?v_89 (<= (- (- (* (- 13) x9) (* 30 x9)) (* 7 x17)) (- 19)))) (let ((?v_96 (not ?v_89)) (?v_66 (not ?v_52)) (?v_79 (<= (- (- (* (- 35) x12) (* 25 x9)) (* 6 x29)) (- 24)))) (let ((?v_125 (not ?v_79)) (?v_143 (not ?v_73)) (?v_120 (not ?v_6)) (?v_140 (not ?v_3)) (?v_119 (<= (+ (* 3 x22) (* 24 x24) (* 6 x12)) (- 32)))) (let ((?v_158 (not ?v_119)) (?v_132 (not ?v_24)) (?v_114 (not ?v_110)) (?v_145 (not ?v_8)) (?v_141 (not ?v_33))) (and (and (and (and (and (and (and (and (and (and (and (and (and (and (and (and (and (and (and (and (and (and (and (and (and (and (and (and (and (and (and (and (and (and (and (and (and (and (and (and (and (and (and (and (and (and (and (and (and (and (and (and (and (and (and (and (and (and (and (and (and (and (and (and (and (and (and (and (and (and (and (and (and (and (and (and (and (and (and (and (and (and (and (and (and (and (and (and (and (and (and (and (and (and (and (and (and (and (and (and (and (and (and (and (and (and (and (and (and (and (and (and (and (and (and (and (and (and (and (and (and (and (and (and (and (and (and (and (and (and (and (and (and (and (and (and (and (and (and (and (and (and (and (and (and (and (and (and (and (and (and (and (and (and (and (and (and (and (and (and (and (and (and (and (and (and (and (and (and (and (and (and (and (and (and (and (and (and (and (and (and (and (and (and (and (and (and (and (and (and (and (and (and (and (and (and (and (and (and (and (and (and (and (and (and (and (and (and (and (and (and (and (and (and (and (and (and (and (and (and (and (and (and (and (and (and (and (and (and (and (and (and (and (and (and (and (and (and (and (and (and (and (and (and (and (and (and (and (and (and (and (and (and (and (and (and (and (and (and (and (and (and (and (and (and (and (and (and (and (and (and (and (and (and (and (and (and (and (and (and (and (and (and (and (and (and (and (and (and (and (and (and (and (and (and (and (and (and (and (and (and (and (and (and (and (and (and (and (and (and (and (and (and (and (and (and (and (and (and (and (and (and (and (and (and (and (and (and (and (and (and (and (and (and (and (and (and (and (and (and (and (and (and (and (and (and (and (and (and (and (and (and (and (and (and (and (and (and (and (or (or ?v_105 P3) P15) (or (or ?v_1 ?v_19) ?v_8)) (or (or ?v_69 P25) ?v_144)) (or (or P4 ?v_93) ?v_6)) (or (or ?v_99 ?v_3) P11)) (or (or ?v_50 ?v_11) ?v_9)) (or (or ?v_1 ?v_147) ?v_4)) (or (or ?v_34 ?v_2) P14)) (or (or ?v_3 ?v_110) ?v_23)) (or (or ?v_51 ?v_18) P25)) (or (or ?v_24 ?v_4) ?v_53)) (or (or ?v_70 P9) ?v_12)) (or (or P7 ?v_97) ?v_7)) (or (or ?v_6 ?v_100) ?v_8)) (or (or ?v_9 ?v_76) ?v_68)) (or (or ?v_10 ?v_10) ?v_37)) (or (or ?v_11 ?v_15) ?v_67)) (or (or P29 ?v_156) ?v_12)) (or (or ?v_9 P16) ?v_7)) (or (or ?v_82 P13) ?v_21)) (or (or ?v_39 ?v_16) P8)) (or (or ?v_14 P18) ?v_60)) (or (or P4 ?v_80) ?v_77)) (or (or ?v_15 ?v_32) ?v_26)) (or (or P18 ?v_6) ?v_121)) (or (or ?v_16 ?v_28) ?v_30)) (or (or P21 ?v_22) ?v_36)) (or (or ?v_21 ?v_22) ?v_138)) (or (or P19 ?v_14) ?v_136)) (or (or ?v_107 ?v_150) ?v_102)) (or (or ?v_27 P9) ?v_52)) (or (or ?v_25 ?v_57) P13)) (or (or P17 ?v_24) P24)) (or (or P22 ?v_25) ?v_26)) (or (or ?v_27 ?v_47) ?v_14)) (or (or ?v_19 P16) ?v_35)) (or (or ?v_28 ?v_29) ?v_30)) (or (or P27 P23) ?v_18)) (or (or P16 ?v_85) ?v_73)) (or (or ?v_29 ?v_32) ?v_3)) (or (or ?v_46 ?v_6) ?v_33)) (or (or ?v_33 ?v_122) ?v_24)) (or (or ?v_34 P19) ?v_43)) (or (or ?v_116 ?v_22) P3)) (or (or ?v_87 ?v_8) ?v_55)) (or (or ?v_15 ?v_101) P10)) (or (or P27 P26) P22)) (or (or ?v_37 ?v_38) ?v_42)) (or (or ?v_49 ?v_86) ?v_10)) (or (or P16 ?v_41) ?v_42)) (or (or ?v_43 ?v_135) ?v_133)) (or (or ?v_18 ?v_46) P17)) (or (or ?v_47 P6) ?v_48)) (or (or ?v_16 P29) ?v_9)) (or (or ?v_123 ?v_72) ?v_109)) (or (or P3 ?v_61) ?v_16)) (or (or P12 ?v_35) ?v_96)) (or (or ?v_63 ?v_66) P17)) (or (or ?v_36 ?v_53) ?v_3)) (or (or ?v_10 ?v_148) ?v_153)) (or (or P1 ?v_55) ?v_36)) (or (or ?v_37 ?v_56) ?v_57)) (or (or P1 ?v_25) ?v_3)) (or (or ?v_78 ?v_58) ?v_154)) (or (or ?v_131 ?v_16) ?v_59)) (or (or ?v_88 P14) P7)) (or (or ?v_83 ?v_27) ?v_61)) (or (or ?v_104 ?v_30) ?v_126)) (or (or P2 P22) ?v_118)) (or (or ?v_63 ?v_64) ?v_19)) (or (or ?v_65 ?v_66) ?v_125)) (or (or ?v_67 P19) ?v_55)) (or (or ?v_22 ?v_68) ?v_137)) (or (or ?v_10 ?v_69) ?v_55)) (or (or ?v_70 ?v_71) P3)) (or (or ?v_112 ?v_55) ?v_143)) (or (or P4 ?v_75) ?v_29)) (or (or ?v_74 P21) ?v_70)) (or (or ?v_67 P21) ?v_75)) (or (or ?v_76 ?v_4) ?v_21)) (or (or ?v_77 ?v_78) P14)) (or (or ?v_14 ?v_61) ?v_79)) (or (or ?v_22 ?v_78) ?v_34)) (or (or ?v_80 ?v_81) ?v_155)) (or (or ?v_81 ?v_14) ?v_72)) (or (or ?v_82 ?v_8) ?v_18)) (or (or ?v_59 ?v_34) ?v_83)) (or (or ?v_134 ?v_106) ?v_90)) (or (or ?v_84 ?v_33) ?v_68)) (or (or ?v_83 P11) ?v_24)) (or (or ?v_52 ?v_120) ?v_111)) (or (or ?v_86 ?v_78) ?v_33)) (or (or ?v_92 ?v_87) ?v_91)) (or (or ?v_88 ?v_89) ?v_90)) (or (or ?v_43 ?v_56) ?v_75)) (or (or ?v_140 ?v_26) ?v_88)) (or (or ?v_35 ?v_129) ?v_92)) (or (or ?v_47 ?v_73) ?v_93)) (or (or ?v_94 ?v_16) ?v_95)) (or (or ?v_12 P23) ?v_15)) (or (or ?v_74 ?v_64) P0)) (or (or ?v_96 ?v_65) ?v_86)) (or (or ?v_70 ?v_158) P27)) (or (or ?v_11 ?v_95) ?v_97)) (or (or ?v_98 ?v_43) P20)) (or (or P0 ?v_99) ?v_100)) (or (or ?v_19 ?v_99) ?v_23)) (or (or ?v_101 ?v_102) ?v_58)) (or (or ?v_26 ?v_103) ?v_97)) (or (or P0 ?v_83) ?v_115)) (or (or ?v_104 ?v_152) ?v_49)) (or (or ?v_146 ?v_30) ?v_106)) (or (or ?v_55 ?v_87) ?v_36)) (or (or ?v_107 ?v_102) ?v_108)) (or (or ?v_109 P17) ?v_38)) (or (or P13 ?v_38) ?v_132)) (or (or ?v_6 ?v_26) ?v_102)) (or (or ?v_83 P12) ?v_81)) (or (or ?v_42 ?v_114) ?v_7)) (or (or ?v_15 ?v_107) ?v_43)) (or (or ?v_111 P16) ?v_112)) (or (or ?v_111 ?v_113) ?v_47)) (or (or ?v_4 ?v_52) ?v_128)) (or (or ?v_114 ?v_86) P17)) (or (or P8 ?v_33) ?v_39)) (or (or ?v_18 ?v_18) ?v_74)) (or (or ?v_24 ?v_115) ?v_73)) (or (or P2 P12) P16)) (or (or ?v_52 ?v_86) ?v_80)) (or (or ?v_110 ?v_76) ?v_61)) (or (or ?v_116 ?v_10) ?v_117)) (or (or ?v_118 ?v_119) ?v_65)) (or (or ?v_120 ?v_86) ?v_99)) (or (or ?v_127 ?v_99) P4)) (or (or ?v_121 ?v_100) ?v_99)) (or (or ?v_47 ?v_122) ?v_29)) (or (or ?v_123 P28) P2)) (or (or ?v_122 ?v_34) ?v_2)) (or (or ?v_8 ?v_124) ?v_73)) (or (or P3 P29) ?v_139)) (or (or ?v_91 ?v_94) ?v_21)) (or (or ?v_118 ?v_125) ?v_60)) (or (or ?v_42 ?v_126) ?v_117)) (or (or ?v_79 ?v_127) ?v_68)) (or (or ?v_3 ?v_12) ?v_64)) (or (or P10 ?v_128) ?v_129)) (or (or ?v_119 ?v_116) ?v_113)) (or (or ?v_14 ?v_12) P18)) (or (or ?v_108 ?v_6) ?v_29)) (or (or ?v_63 ?v_130) P14)) (or (or ?v_131 ?v_29) ?v_69)) (or (or ?v_105 ?v_102) ?v_122)) (or (or ?v_132 P22) ?v_46)) (or (or ?v_69 ?v_122) ?v_57)) (or (or ?v_95 ?v_18) P18)) (or (or ?v_60 ?v_69) ?v_133)) (or (or ?v_114 ?v_145) ?v_57)) (or (or ?v_111 ?v_132) ?v_52)) (or (or ?v_47 ?v_27) P8)) (or (or P0 ?v_4) ?v_69)) (or (or ?v_16 ?v_133) P23)) (or (or ?v_99 (not ?v_46)) ?v_119)) (or (or ?v_133 ?v_68) P26)) (or (or ?v_134 ?v_73) ?v_127)) (or (or ?v_135 ?v_135) ?v_53)) (or (or P23 ?v_77) ?v_85)) (or (or P3 ?v_136) P9)) (or (or ?v_75 ?v_122) ?v_53)) (or (or ?v_137 ?v_130) ?v_66)) (or (or ?v_92 ?v_102) ?v_23)) (or (or ?v_106 ?v_1) ?v_53)) (or (or ?v_117 P1) ?v_59)) (or (or ?v_103 P21) ?v_79)) (or (or ?v_35 ?v_92) ?v_141)) (or (or ?v_138 ?v_51) P23)) (or (or ?v_115 P29) P28)) (or (or ?v_84 ?v_91) ?v_139)) (or (or ?v_83 P27) ?v_140)) (or (or ?v_22 P8) P6)) (or (or ?v_33 ?v_73) ?v_149)) (or (or ?v_96 ?v_141) ?v_142)) (or (or ?v_23 ?v_68) ?v_143)) (or (or P1 ?v_122) ?v_135)) (or (or ?v_29 ?v_144) P0)) (or (or ?v_50 P14) ?v_58)) (or (or ?v_151 ?v_39) ?v_4)) (or (or ?v_93 ?v_131) ?v_52)) (or (or ?v_75 ?v_39) ?v_98)) (or (or P26 ?v_61) ?v_91)) (or (or ?v_121 ?v_79) ?v_142)) (or (or P21 ?v_37) ?v_23)) (or (or ?v_30 P7) ?v_111)) (or (or ?v_125 ?v_15) ?v_130)) (or (or P8 ?v_133) ?v_63)) (or ?v_159 ?v_10)) (or (or ?v_87 ?v_130) ?v_84)) (or (or ?v_25 ?v_16) ?v_56)) (or (or ?v_68 ?v_81) ?v_145)) (or (or P1 ?v_146) P26)) (or (or ?v_53 ?v_130) ?v_147)) (or (or P4 ?v_148) ?v_124)) (or (or ?v_136 ?v_64) ?v_35)) (or (or ?v_149 ?v_71) ?v_21)) (or (or P2 ?v_46) ?v_16)) (or (or ?v_92 ?v_27) ?v_29)) (or (or ?v_150 ?v_115) ?v_58)) (or (or ?v_142 ?v_32) ?v_47)) (or (or ?v_118 P19) ?v_89)) (or (or ?v_79 ?v_80) ?v_151)) (or (or ?v_109 ?v_152) ?v_72)) (or (or ?v_116 ?v_86) ?v_150)) (or (or ?v_50 ?v_88) ?v_117)) (or (or ?v_75 ?v_91) ?v_48)) (or (or ?v_19 P21) ?v_72)) (or (or ?v_100 ?v_12) ?v_57)) (or (or ?v_134 ?v_60) ?v_71)) (or (or ?v_16 ?v_3) ?v_98)) (or (or ?v_66 ?v_141) P10)) (or (or P18 ?v_95) P9)) (or (or ?v_70 ?v_134) ?v_123)) (or (or ?v_58 ?v_105) ?v_136)) (or (or ?v_143 ?v_34) ?v_42)) (or (or ?v_130 ?v_90) ?v_115)) (or (or ?v_81 ?v_79) ?v_126)) (or (or P25 P26) ?v_83)) (or (or ?v_8 P22) ?v_50)) (or (or ?v_153 ?v_75) P24)) (or (or ?v_99 ?v_25) P28)) (or (or ?v_29 P11) P18)) (or (or ?v_81 P28) ?v_88)) (or (or ?v_18 (not ?v_126)) ?v_58)) (or (or ?v_3 ?v_11) ?v_16)) (or (or ?v_43 ?v_23) ?v_41)) (or (or ?v_97 ?v_99) ?v_18)) (or (or P8 ?v_43) ?v_122)) (or (or ?v_42 ?v_131) ?v_85)) (or (or P18 ?v_68) ?v_57)) (or (or ?v_27 ?v_56) P4)) (or (or P15 P23) ?v_87)) (or (or ?v_122 ?v_49) ?v_113)) (or (or ?v_146 ?v_63) ?v_52)) (or (or ?v_81 ?v_119) ?v_72)) (or (or ?v_112 ?v_154) P10)) (or (or ?v_38 ?v_120) ?v_2)) (or (or ?v_139 ?v_69) ?v_11)) (or (or ?v_122 P23) ?v_126)) (or (or P10 ?v_70) ?v_77)) (or (or P5 ?v_148) ?v_60)) (or (or ?v_2 ?v_116) ?v_143)) (or (or ?v_65 P4) ?v_84)) (or (or ?v_121 ?v_136) P12)) (or (or ?v_71 ?v_133) ?v_33)) (or (or ?v_50 ?v_152) ?v_149)) (or (or ?v_46 ?v_78) P8)) (or (or ?v_155 ?v_132) ?v_19)) (or (or ?v_153 ?v_55) ?v_10)) (or (or ?v_145 ?v_3) ?v_66)) (or (or ?v_153 ?v_2) ?v_46)) (or (or ?v_101 ?v_16) ?v_141)) (or (or ?v_157 ?v_108) ?v_71)) (or (or ?v_14 ?v_70) ?v_103)) (or (or ?v_32 P18) ?v_129)) (or (or P16 ?v_156) ?v_67)) (or (or ?v_108 P6) ?v_96)) (or (or P20 ?v_116) ?v_9)) (or (or ?v_35 ?v_115) P3)) (or (or ?v_36 ?v_118) ?v_91)) (or (or ?v_118 ?v_107) P22)) (or (or ?v_110 ?v_11) ?v_144)) (or (or ?v_108 ?v_53) ?v_147)) (or (or ?v_9 P27) ?v_27)) (or (or ?v_94 P3) P5)) (or (or ?v_2 ?v_108) ?v_157)) (or (or P10 ?v_66) ?v_115)) (or (or ?v_71 ?v_89) ?v_2)) (or (or ?v_33 ?v_145) P9)) (or (or ?v_47 ?v_29) ?v_10)) (or (or ?v_30 ?v_79) P2)) (or (or ?v_132 ?v_122) ?v_4)) (or (or ?v_89 ?v_157) ?v_99)) (or (or ?v_22 ?v_6) ?v_96)) (or (or ?v_105 ?v_135) ?v_100)) (or (or ?v_99 ?v_56) ?v_126)) (or (or ?v_23 ?v_6) ?v_98)) (or (or ?v_16 P21) ?v_132)) (or (or ?v_59 ?v_125) ?v_41)) (or (or ?v_64 P24) P17)) (or (or ?v_101 ?v_116) ?v_55)) (or (or ?v_60 ?v_25) ?v_6)) (or (or ?v_85 ?v_113) P28)) (or (or ?v_36 ?v_73) ?v_157)) (or (or ?v_139 P25) ?v_59)) (or (or ?v_32 ?v_140) ?v_72)) (or (or ?v_11 ?v_141) ?v_71)) (or (or P4 ?v_8) ?v_126)) (or (or ?v_154 ?v_87) ?v_134)) (or (or ?v_144 ?v_61) ?v_133)) (or (or ?v_158 ?v_111) ?v_134)) (or (or ?v_42 ?v_103) P9)) (or (or ?v_130 ?v_53) ?v_41)) (or (or ?v_47 P21) ?v_98)) (or (or ?v_68 ?v_53) ?v_83)) (or (or P7 ?v_14) ?v_95)) (or (or ?v_48 ?v_151) ?v_91)) (or (or P3 ?v_143) ?v_68)) (or (or P7 ?v_22) ?v_35)) (or (or ?v_153 ?v_98) ?v_116)) (or (or ?v_26 ?v_153) ?v_92)) (or (or P24 P18) ?v_3)) (or (or ?v_16 ?v_69) ?v_41)) (or (or ?v_1 ?v_49) ?v_82)) (or (or ?v_29 ?v_23) ?v_106)) (or (or ?v_63 ?v_36) ?v_92)) (or (or ?v_89 ?v_2) ?v_87)) (or (or ?v_63 P19) ?v_37)) (or (or ?v_23 ?v_33) ?v_58)) (or (or ?v_103 P26) ?v_55)) (or (or ?v_58 P8) P7)) (or (or ?v_147 ?v_48) ?v_82)) (or (or P18 ?v_9) P16)) (or (or ?v_51 ?v_42) ?v_110)) (or (or ?v_37 P6) ?v_51)) (or (or ?v_131 ?v_148) ?v_145)) (or (or ?v_108 ?v_33) P3)) (or (or ?v_97 ?v_29) ?v_69)) (or (or ?v_28 ?v_56) ?v_57)) (or (or ?v_85 ?v_155) P20)) (or (or ?v_141 P23) ?v_147)) (or (or P28 ?v_148) ?v_43)) (or (or ?v_22 ?v_103) P0)) (or (or ?v_79 ?v_158) ?v_132)) (or (or ?v_97 ?v_152) ?v_3)) (or (or ?v_65 ?v_4) ?v_58)) (or (or ?v_90 ?v_134) P5)) (or (or ?v_155 P15) P3)) (or ?v_159 ?v_95)) (or (or ?v_42 ?v_41) ?v_77)) (or (or ?v_78 ?v_82) ?v_3)) (or (or ?v_156 P19) ?v_65)) (or (or ?v_36 ?v_124) ?v_96)) (or (or ?v_99 ?v_2) ?v_142)) (or (or ?v_91 P8) ?v_128)) (or (or ?v_157 ?v_88) ?v_135)) (or (or ?v_74 ?v_152) ?v_144)) (or (or ?v_132 ?v_144) ?v_85)) (or (or P15 ?v_147) P24)) (or (or ?v_94 ?v_1) ?v_141)) (or (or ?v_116 ?v_46) P20)) (or (or ?v_70 ?v_78) ?v_94)) (or (or ?v_123 ?v_77) ?v_158)) (or (or ?v_147 P20) ?v_47)) (or (or ?v_97 ?v_68) ?v_126)) (or (or P27 P7) P12)) (or (or ?v_98 ?v_143) P17)) (or (or ?v_112 ?v_83) P10)) (or (or ?v_96 ?v_118) P28)) (or (or ?v_76 ?v_112) P8)) (or (or ?v_77 ?v_18) P23)) (or (or ?v_28 P5) ?v_51)) (or (or ?v_137 ?v_144) P7))))))))))))))))))))))))))))
(check-sat)
(exit)
